CapLotSizing_PM/src/Instancias/TCHSHT/25i6p2m/NBA09.OUT
 CG ITER, OVMR, OVMRUB =           1   88864.1171875   88864.1093750
 CG ITER, OVMR, OVMRUB =           2   88864.1171875   88864.1093750
 CG ITER, OVMR, OVMRUB =           3   72648.9765625   78177.2734375
 CG ITER, OVMR, OVMRUB =           4   66138.0625000   78177.2734375
 CG ITER, OVMR, OVMRUB =           5   64421.9062500   72552.8984375
 CG ITER, OVMR, OVMRUB =           6   64098.2304688   72552.8984375
 CG ITER, OVMR, OVMRUB =           7   63758.3828125   72552.8984375
 CG ITER, OVMR, OVMRUB =           8   63409.6250000   72552.8984375
 CG ITER, OVMR, OVMRUB =           9   63210.6484375   72552.8984375
 CG ITER, OVMR, OVMRUB =          10   62997.3359375   72552.8984375
 CG ITER, OVMR, OVMRUB =          11   62781.2070312   72552.8984375
 CG ITER, OVMR, OVMRUB =          12   62584.2343750   72552.8984375
 CG ITER, OVMR, OVMRUB =          13   62407.8085938   72552.8984375
 CG ITER, OVMR, OVMRUB =          14   62269.4726562   72552.8984375
 CG ITER, OVMR, OVMRUB =          15   62103.5781250   72552.8984375
 CG ITER, OVMR, OVMRUB =          16   61971.6132812   72552.8984375
 CG ITER, OVMR, OVMRUB =          17   61863.2148438   72552.8984375
 CG ITER, OVMR, OVMRUB =          18   61785.4726562   72552.8984375
 CG ITER, OVMR, OVMRUB =          19   61743.3203125   72552.8984375
 CG ITER, OVMR, OVMRUB =          20   61694.9687500   71234.0312500
 CG ITER, OVMR, OVMRUB =          21   61631.0703125   71234.0312500
 CG ITER, OVMR, OVMRUB =          22   61600.4062500   71234.0312500
 CG ITER, OVMR, OVMRUB =          23   61520.9921875   71234.0312500
 CG ITER, OVMR, OVMRUB =          24   61389.7382812   71234.0312500
 CG ITER, OVMR, OVMRUB =          25   61311.6640625   71234.0312500
 CG ITER, OVMR, OVMRUB =          26   61225.7890625   71234.0312500
 CG ITER, OVMR, OVMRUB =          27   61162.2695312   71234.0312500
 CG ITER, OVMR, OVMRUB =          28   61098.5820312   71234.0312500
 CG ITER, OVMR, OVMRUB =          29   61059.2734375   71234.0312500
 CG ITER, OVMR, OVMRUB =          30   61026.3789062   71234.0312500
 CG ITER, OVMR, OVMRUB =          31   60968.9179688   70952.9140625
 CG ITER, OVMR, OVMRUB =          32   60917.9492188   70952.9140625
 CG ITER, OVMR, OVMRUB =          33   60855.0937500   70952.9140625
 CG ITER, OVMR, OVMRUB =          34   60805.2109375   70952.9140625
 CG ITER, OVMR, OVMRUB =          35   60780.4921875   70952.9140625
 CG ITER, OVMR, OVMRUB =          36   60758.9648438   70952.9140625
 CG ITER, OVMR, OVMRUB =          37   60757.5273438   70952.9140625
 CG ITER, OVMR, OVMRUB =          38   60692.6953125   70952.9140625
 CG ITER, OVMR, OVMRUB =          39   60678.2031250   69720.0390625
 CG ITER, OVMR, OVMRUB =          40   60664.7929688   69460.4218750
 CG ITER, OVMR, OVMRUB =          41   60623.6093750   69460.4218750
 CG ITER, OVMR, OVMRUB =          42   60577.2851562   69460.4218750
 CG ITER, OVMR, OVMRUB =          43   60564.0937500   69460.4218750
 CG ITER, OVMR, OVMRUB =          44   60558.9687500   69460.4218750
 CG ITER, OVMR, OVMRUB =          45   60533.7539062   69460.4218750
 CG ITER, OVMR, OVMRUB =          46   60526.9179688   69460.4218750
 CG ITER, OVMR, OVMRUB =          47   60512.9414062   68645.1953125
 CG ITER, OVMR, OVMRUB =          48   60508.5468750   68420.6093750
 CG ITER, OVMR, OVMRUB =          49   60500.4335938   64336.8554688
 CG ITER, OVMR, OVMRUB =          50   60468.4687500   64336.8554688
 CG ITER, OVMR, OVMRUB =          51   60469.7382812   64336.8554688
 CG ITER, OVMR, OVMRUB =          52   60452.9101562   64336.8554688
 CG ITER, OVMR, OVMRUB =          53   60443.2851562   64336.8554688
 CG ITER, OVMR, OVMRUB =          54   60435.8359375   64336.8554688
 CG ITER, OVMR, OVMRUB =          55   60428.6289062   64336.8554688
 CG ITER, OVMR, OVMRUB =          56   60428.3320312   64336.8554688
 CG ITER, OVMR, OVMRUB =          57   60391.3437500   64336.8554688
 CG ITER, OVMR, OVMRUB =          58   60385.6562500   64336.8554688
 CG ITER, OVMR, OVMRUB =          59   60383.6718750   64336.8554688
 CG ITER, OVMR, OVMRUB =          60   60382.1992188   64336.8554688
 CG ITER, OVMR, OVMRUB =          61   60385.1992188   64336.8554688
 CG ITER, OVMR, OVMRUB =          62   60380.2734375   64336.8554688
 CG ITER, OVMR, OVMRUB =          63   60386.3593750   64336.8554688
 CG ITER, OVMR, OVMRUB =          64   60385.5117188   64336.8554688
 CG ITER, OVMR, OVMRUB =          65   60386.2851562   64336.8554688
 CG ITER, OVMR, OVMRUB =          66   60385.1601562   64336.8554688
 CG ITER, OVMR, OVMRUB =          67   60383.7968750   64336.8554688
 CG ITER, OVMR, OVMRUB =          68   60388.3437500   64336.8554688
 CG ITER, OVMR, OVMRUB =          69   60380.9960938   64336.8554688
 CG ITER, OVMR, OVMRUB =          70   60384.2773438   64336.8554688
 CG ITER, OVMR, OVMRUB =          71   60383.1640625   64336.8554688
 CG ITER, OVMR, OVMRUB =          72   60385.0117188   64336.8554688
 CG ITER, OVMR, OVMRUB =          73   60383.9375000   63349.6757812
 CG ITER, OVMR, OVMRUB =          74   60380.7070312   63349.6757812
 CG ITER, OVMR, OVMRUB =          75   60382.0390625   63349.6757812
 CG ITER, OVMR, OVMRUB =          76   60382.0390625   63349.6757812
OVLB =   60382.0390625 OVLUB =   63349.6757812 TIME =      18.8799992
